(set-logic HORN)

(declare-fun |state| ( Bool Bool Bool Bool Bool Bool Bool Bool Bool Bool Int Int Int Int Int ) Bool)

(assert
  (forall ( (A Bool) (B Bool) (C Int) (D Bool) (E Int) (F Int) (G Int) (H Bool) (I Bool) (J Bool) (K Bool) (L Bool) (M Int) (N Bool) (O Bool) ) 
    (=>
      (and
        (and (= C 0)
     (= M 0)
     (= G 0)
     (= E 0)
     (or H I J (not K) (not L))
     (or D (not B) (not A) N O)
     (or (not L) (and (not H) (not I) (not J)))
     (or (not B) (and (not D) (not N) (not O)))
     (not O)
     (not N)
     (not L)
     (not K)
     (not J)
     (not I)
     (not H)
     (not A)
     (not B)
     (not D)
     (= F 0))
      )
      (state J I H L K D O N B A F E C M G)
    )
  )
)
(assert
  (forall ( (A Bool) (B Bool) (C Int) (D Bool) (E Int) (F Int) (G Bool) (H Bool) (I Int) (J Int) (K Int) (L Int) (M Bool) (N Bool) (O Bool) (P Bool) (Q Bool) (R Bool) (S Bool) (T Bool) (U Bool) (V Int) (W Bool) (X Int) (Y Bool) (Z Bool) (A1 Bool) (B1 Bool) (C1 Bool) (D1 Int) (E1 Bool) (F1 Bool) ) 
    (=>
      (and
        (state A1 Z Y C1 B1 D F1 E1 B A F E C D1 X)
        (let ((a!1 (and (not Q)
                (not P)
                (not O)
                (not N)
                (not M)
                (= C L)
                (= E K)
                (= F I)
                (= X J)))
      (a!2 (and (or (and P (not O) N M) (not (= E 2)))
                (or (and P O N (not M)) (= E 2))
                (= C L)
                (= E K)
                (= F I)
                (= X J)))
      (a!3 (and (or (and (not P) O N (not M)) (<= 1 D1))
                (or (and P (not O) N (not M)) (not (<= 1 D1)))
                (= C L)
                (= E K)
                (= F I)
                (= X J)))
      (a!4 (and (or (and (not P) O (not N) M) (not (= E 0)))
                (or (and P O (not N) (not M)) (= E 0))
                (= C L)
                (= E K)
                (= F I)
                (= X J)))
      (a!5 (and (or (and (not P) (not O) N M) (not (= E 0)))
                (or (and P O N (not M)) (= E 0))
                (= C L)
                (= E K)
                (= F I)
                (= X J)))
      (a!6 (and (or (and (not P) (not O) N (not M)) (= F 2))
                (or (and P (not O) N M) (not (= F 2)))
                (= C L)
                (= E K)
                (= F I)
                (= X J)))
      (a!7 (and (or (and (not P) (not O) (not N) M) (= E 0))
                (or (and P (not O) (not N) M) (not (= E 0)))
                (= C L)
                (= E K)
                (= F I)
                (= X J)))
      (a!8 (and (not W)
                (not U)
                (not T)
                (not S)
                (not R)
                (= C L)
                (= E K)
                (= F I)
                (= D1 V)))
      (a!9 (and (or (and U (not T) S R) (not (= E 1)))
                (or (and U T S (not R)) (= E 1))
                (= C L)
                (= E K)
                (= F I)
                (= D1 V)))
      (a!10 (and (or (and (not U) T S (not R)) (<= 1 X))
                 (or (and U (not T) S (not R)) (not (<= 1 X)))
                 (= C L)
                 (= E K)
                 (= F I)
                 (= D1 V)))
      (a!11 (and (or (and (not U) T (not S) R) (not (= E 0)))
                 (or (and U T (not S) (not R)) (= E 0))
                 (= C L)
                 (= E K)
                 (= F I)
                 (= D1 V)))
      (a!12 (and (or (and (not U) (not T) S R) (not (= E 0)))
                 (or (and U T S (not R)) (= E 0))
                 (= C L)
                 (= E K)
                 (= F I)
                 (= D1 V)))
      (a!13 (and (or (and (not U) (not T) S (not R)) (= F 1))
                 (or (and U (not T) S R) (not (= F 1)))
                 (= C L)
                 (= E K)
                 (= F I)
                 (= D1 V)))
      (a!14 (and (or (and (not U) (not T) (not S) R) (= E 0))
                 (or (and U (not T) (not S) R) (not (= E 0)))
                 (= C L)
                 (= E K)
                 (= F I)
                 (= D1 V))))
  (and (or (not G)
           Y
           Z
           A1
           B1
           (not C1)
           (and Q
                (not P)
                (not O)
                (not N)
                (not M)
                (= C L)
                (= E K)
                (= F I)
                (= X J)))
       (or (not G)
           Y
           Z
           A1
           B1
           C1
           (and P (not O) (not N) (not M) (= C L) (= E K) (= F I) (= J 2)))
       (or A
           (not B)
           D
           (not H)
           E1
           F1
           (and W
                (not U)
                (not T)
                (not S)
                (not R)
                (= C L)
                (= E K)
                (= F I)
                (= D1 V)))
       (or A
           B
           D
           (not H)
           E1
           F1
           (and U (not T) (not S) (not R) (= C L) (= E K) (= F I) (= V 1)))
       (or (not G) Y Z (not A1) (not B1) a!1)
       (or (not G) (not Y) Z (not A1) B1 a!1)
       (or (not G)
           (not Y)
           (not Z)
           (not A1)
           (not B1)
           (and Q
                (not P)
                (not O)
                (not N)
                (not M)
                (= C L)
                (= E K)
                (= F I)
                (= J 0)))
       (or (not G)
           (not Y)
           Z
           (not A1)
           (not B1)
           (and (not P) O N M (= E K) (= F I) (= L 2) (= X J)))
       (or (not G)
           Y
           (not Z)
           (not A1)
           B1
           (and P O (not N) M (= C L) (= F I) (= K 2) (= X J)))
       (or (not G)
           Y
           (not Z)
           (not A1)
           (not B1)
           (and P O N M (= C L) (= F I) (= K 0) (= X J)))
       (or (not G)
           (not Y)
           Z
           A1
           B1
           (and (not P) O (not N) (not M) (= C L) (= E K) (= I 2) (= X J)))
       (or (not G)
           Y
           Z
           A1
           (not B1)
           (and P (not O) N (not M) (= C L) (= E K) (= F I) (= J 2)))
       (or (not G)
           (not Y)
           (not Z)
           A1
           B1
           (and (not P) (not O) (not N) M (= C L) (= E K) (= F I) (= J 0)))
       (or (not G) Y (not Z) A1 (not B1) a!2)
       (or (not G) (not Y) Z A1 (not B1) a!3)
       (or (not G) Y (not Z) A1 B1 a!4)
       (or (not G) (not Y) (not Z) A1 (not B1) a!5)
       (or (not G) (not Y) (not Z) (not A1) B1 a!6)
       (or (not G) Y Z (not A1) B1 a!7)
       (or A (not D) (not H) (not E1) F1 a!8)
       (or (not A) (not D) (not H) E1 F1 a!8)
       (or (not A)
           (not D)
           (not H)
           (not E1)
           (not F1)
           (and W
                (not U)
                (not T)
                (not S)
                (not R)
                (= C L)
                (= E K)
                (= F I)
                (= V 0)))
       (or (not A)
           (not D)
           (not H)
           (not E1)
           F1
           (and (not U) T S R (= E K) (= F I) (= L 1) (= D1 V)))
       (or A
           (not D)
           (not H)
           E1
           (not F1)
           (and U T (not S) R (= C L) (= F I) (= K 1) (= D1 V)))
       (or (not A)
           (not D)
           (not H)
           E1
           (not F1)
           (and U T S R (= C L) (= F I) (= K 0) (= D1 V)))
       (or A
           D
           (not H)
           (not E1)
           F1
           (and (not U) T (not S) (not R) (= C L) (= E K) (= I 1) (= D1 V)))
       (or (not A)
           D
           (not H)
           E1
           F1
           (and U (not T) S (not R) (= C L) (= E K) (= F I) (= V 1)))
       (or A
           D
           (not H)
           (not E1)
           (not F1)
           (and (not U) (not T) (not S) R (= C L) (= E K) (= F I) (= V 0)))
       (or (not A) D (not H) E1 (not F1) a!9)
       (or (not A) D (not H) (not E1) F1 a!10)
       (or A D (not H) E1 (not F1) a!11)
       (or (not A) D (not H) (not E1) (not F1) a!12)
       (or A (not D) (not H) (not E1) (not F1) a!13)
       (or A (not D) (not H) E1 F1 a!14)
       (or Y Z A1 (not B1) (not C1))
       (or (not Q) P O (not N) M)
       (or (not W) U T (not S) R)
       (or (not A) (not B) D E1 F1)
       (or (not C1) (and (not Y) (not Z) (not A1)))
       (or G (and (= X J) (= Y P) (= Z O) (= A1 M) (= B1 N) (= C1 Q)))
       (or H (and (= D1 V) (= A S) (= B W) (= D R) (= E1 U) (= F1 T)))
       (or (not Q) (and (not P) (not O) (not M)))
       (or (not W) (and (not U) (not T) (not R)))
       (or (not B) (and (not D) (not E1) (not F1)))
       (= H (not G))))
      )
      (state M O P Q N R T U W S I K L V J)
    )
  )
)
(assert
  (forall ( (A Bool) (B Bool) (C Int) (D Bool) (E Int) (F Int) (G Int) (H Bool) (I Bool) (J Bool) (K Bool) (L Bool) (M Int) (N Bool) (O Bool) ) 
    (=>
      (and
        (state J I H L K D O N B A F E C M G)
        (and (= O true) (not N) (= A true) (= D true) (not (= C 1)))
      )
      false
    )
  )
)

(check-sat)
(exit)
